examples/example-Schur.drup
  1  3 0
  1  5 0
     1 0
d 1  3 0
d 1  5 0
    -3 0
    -5 0
       0
